# Objective value = 1.9787294748213637e+03
x[0] 1
x[1] 1
x[2] 1
x[3] 1
x[4] 1
x[5] 1
x[6] 0
x[7] 0
x[8] 0
x[9] 1
x[10] 1
x[11] 0
x[12] 1
x[13] 0
x[14] 1
x[15] 1
x[16] 0
x[17] 1
x[18] 0
x[19] 0
x[20] 1
x[21] 0
x[22] 1
x[23] 1
x[24] 1
x[25] 0
x[26] 0
x[27] 1
x[28] 1
x[29] 1
x[30] 0
x[31] 1
x[32] 0
x[33] 1
x[34] 1
x[35] 0
x[36] 1
x[37] 0
x[38] 1
x[39] 0
x[40] 1
x[41] 0
x[42] 0
x[43] 0
x[44] 1
x[45] 0
x[46] 0
x[47] 0
x[48] 1
x[49] 0
x[50] 1
x[51] 0
x[52] 0
x[53] 0
x[54] 0
x[55] 0
x[56] 1
x[57] 0
x[58] 0
x[59] 0
x[60] 1
x[61] 0
x[62] 1
x[63] 0
x[64] 0
x[65] 1
x[66] 0
x[67] 0
x[68] 0
x[69] 1
x[70] 1
x[71] 1
x[72] 0
x[73] 1
x[74] 0
x[75] 1
x[76] 1
x[77] 1
x[78] 0
x[79] 0
x[80] 0
x[81] 1
x[82] 0
x[83] 1
x[84] 1
x[85] 1
x[86] 0
x[87] 1
x[88] 0
x[89] 0
x[90] 0
x[91] 1
x[92] 0
x[93] 1
x[94] 0
x[95] 1
x[96] 1
x[97] 1
x[98] 1
x[99] 1
x[100] 1
x[101] 1
x[102] 0
x[103] 1
x[104] 0
x[105] 1
x[106] 1
x[107] 1
x[108] 1
x[109] 0
x[110] 1
x[111] 0
x[112] 0
x[113] 0
x[114] 0
x[115] 1
x[116] 1
x[117] 0
x[118] 0
x[119] 1
x[120] 0
x[121] 0
x[122] 0
x[123] 1
x[124] 0
x[125] 1
x[126] 1
x[127] 0
x[128] 1
x[129] 0
x[130] 1
x[131] 0
x[132] 0
x[133] 1
x[134] 1
x[135] 1
x[136] 0
x[137] 0
x[138] 0
x[139] 1
x[140] 0
x[141] 1
x[142] 1
x[143] 1
x[144] 1
x[145] 1
x[146] 1
x[147] 1
x[148] 1
x[149] 1
x[150] 0
x[151] 0
x[152] 0
x[153] 0
x[154] 1
x[155] 1
x[156] 1
x[157] 0
x[158] 1
x[159] 0
x[160] 0
x[161] 0
x[162] 0
x[163] 0
x[164] 0
x[165] 1
x[166] 0
x[167] 1
x[168] 1
x[169] 1
x[170] 0
x[171] 0
x[172] 0
x[173] 1
x[174] 1
x[175] 1
x[176] 0
x[177] 1
x[178] 1
x[179] 0
x[180] 1
x[181] 1
x[182] 1
x[183] 0
x[184] 1
x[185] 0
x[186] 1
x[187] 0
x[188] 0
x[189] 1
x[190] 0
x[191] 1
x[192] 1
x[193] 0
x[194] 1
x[195] 1
x[196] 0
x[197] 0
x[198] 1
x[199] 1
x[200] 1
x[201] 0
x[202] 0
x[203] 1
x[204] 0
x[205] 1
x[206] 0
x[207] 0
x[208] 1
x[209] 1
x[210] 0
x[211] 1
x[212] 1
x[213] 0
x[214] 1
x[215] 1
x[216] 1
x[217] 1
x[218] 1
x[219] 0
x[220] 0
x[221] 0
x[222] 1
x[223] 1
x[224] 0
x[225] 1
x[226] 0
x[227] 0
x[228] 1
x[229] 0
x[230] 1
x[231] 1
x[232] 0
x[233] 1
x[234] 0
x[235] 1
x[236] 1
x[237] 1
x[238] 1
x[239] 1
x[240] 1
x[241] 1
x[242] 0
x[243] 0
x[244] 0
x[245] 1
x[246] 1
x[247] 1
x[248] 1
x[249] 1
x[250] 1
x[251] 1
x[252] 0
x[253] 1
x[254] 0
x[255] 1
x[256] 0
x[257] 0
x[258] 1
x[259] 1
x[260] 1
x[261] 0
x[262] 0
x[263] 1
x[264] 0
x[265] 0
x[266] 0
x[267] 0
x[268] 1
x[269] 1
x[270] 0
x[271] 1
x[272] 1
x[273] 0
x[274] 0
x[275] 1
x[276] 1
x[277] 0
x[278] 1
x[279] 0
x[280] 0
x[281] 1
x[282] 1
x[283] 1
x[284] 0
x[285] 1
x[286] 1
x[287] 1
x[288] 1
x[289] 1
x[290] 1
x[291] 1
x[292] 1
x[293] 1
x[294] 1
x[295] 0
x[296] 1
x[297] 0
x[298] 0
x[299] 0
x[300] 1
x[301] 1
x[302] 1
x[303] 1
x[304] 0
x[305] 1
x[306] 1
x[307] 1
x[308] 1
x[309] 0
x[310] 0
x[311] 0
x[312] 0
x[313] 1
x[314] 0
x[315] 0
x[316] 1
x[317] 1
x[318] 0
x[319] 0
x[320] 0
x[321] 1
x[322] 1
x[323] 0
x[324] 0
x[325] 0
x[326] 0
x[327] 0
x[328] 0
x[329] 1
x[330] 1
x[331] 1
x[332] 1
x[333] 1
x[334] 1
x[335] 1
x[336] 0
x[337] 0
x[338] 0
x[339] 0
x[340] 0
x[341] 1
x[342] 1
x[343] 1
x[344] 0
x[345] 0
x[346] 0
x[347] 0
x[348] 1
x[349] 0
x[350] 1
x[351] 1
x[352] 1
x[353] 0
x[354] 1
x[355] 1
x[356] 0
x[357] 1
x[358] 0
x[359] 1
x[360] 0
x[361] 1
x[362] 1
x[363] 1
x[364] 1
x[365] 0
x[366] 0
x[367] 0
x[368] 0
x[369] 1
x[370] 1
x[371] 0
x[372] 0
x[373] 0
x[374] 1
x[375] 1
x[376] 1
x[377] 1
x[378] 1
x[379] 1
x[380] 1
x[381] 1
x[382] 0
x[383] 1
x[384] 0
x[385] 0
x[386] 0
x[387] 0
x[388] 0
x[389] 1
x[390] 1
x[391] 0
x[392] 0
x[393] 1
x[394] 0
x[395] 0
x[396] 1
x[397] 1
x[398] 0
x[399] 1
x[400] 1
x[401] 1
x[402] 0
x[403] 1
x[404] 0
x[405] 1
x[406] 0
x[407] 1
x[408] 0
x[409] 0
x[410] 1
x[411] 0
x[412] 1
x[413] 0
x[414] 1
x[415] 1
x[416] 1
x[417] 1
x[418] 0
x[419] 0
x[420] 1
x[421] 0
x[422] 1
x[423] 1
x[424] 1
x[425] 0
x[426] 0
x[427] 0
x[428] 0
x[429] 1
x[430] 1
x[431] 1
x[432] 1
x[433] 0
x[434] 1
x[435] 1
x[436] 1
x[437] 0
x[438] 1
x[439] 0
x[440] 0
x[441] 1
x[442] 1
x[443] 0
x[444] 1
x[445] 1
x[446] 1
x[447] 1
x[448] 1
x[449] 1
x[450] 0
x[451] 1
x[452] 1
x[453] 1
x[454] 1
x[455] 1
x[456] 1
x[457] 0
x[458] 0
x[459] 0
x[460] 0
x[461] 1
x[462] 0
x[463] 0
x[464] 1
x[465] 0
x[466] 0
x[467] 1
x[468] 1
x[469] 1
x[470] 0
x[471] 1
x[472] 0
x[473] 1
x[474] 1
x[475] 1
x[476] 0
x[477] 0
x[478] 1
x[479] 0
x[480] 0
x[481] 1
x[482] 1
x[483] 1
x[484] 1
x[485] 1
x[486] 0
x[487] 1
x[488] 0
x[489] 0
x[490] 1
x[491] 0
x[492] 1
x[493] 0
x[494] 0
x[495] 1
x[496] 0
x[497] 0
x[498] 1
x[499] 0
x[500] 0
x[501] 1
x[502] 1
x[503] 1
x[504] 1
x[505] 1
x[506] 0
x[507] 1
x[508] 0
x[509] 1
x[510] 0
x[511] 1
x[512] 1
x[513] 1
x[514] 1
x[515] 1
x[516] 1
x[517] 0
x[518] 0
x[519] 1
x[520] 0
x[521] 1
x[522] 1
x[523] 1
x[524] 1
x[525] 1
x[526] 1
x[527] 0
x[528] 0
x[529] 1
x[530] 0
x[531] 1
x[532] 1
x[533] 0
x[534] 1
x[535] 0
x[536] 1
x[537] 0
x[538] 1
x[539] 1
x[540] 1
x[541] 1
x[542] 0
x[543] 1
x[544] 0
x[545] 0
x[546] 1
x[547] 0
x[548] 0
x[549] 0
x[550] 1
x[551] 0
x[552] 0
x[553] 0
x[554] 1
x[555] 1
x[556] 1
x[557] 1
x[558] 0
x[559] 1
x[560] 0
x[561] 1
x[562] 0
x[563] 0
x[564] 1
x[565] 0
x[566] 1
x[567] 1
x[568] 1
x[569] 0
x[570] 1
x[571] 1
x[572] 0
x[573] 1
x[574] 1
x[575] 1
x[576] 1
x[577] 0
x[578] 1
x[579] 1
x[580] 0
x[581] 1
x[582] 1
x[583] 1
x[584] 1
x[585] 1
x[586] 1
x[587] 0
x[588] 1
x[589] 0
x[590] 1
x[591] 1
x[592] 0
x[593] 1
x[594] 1
x[595] 1
x[596] 0
x[597] 0
x[598] 0
x[599] 0
x[600] 0
x[601] 0
x[602] 0
x[603] 0
x[604] 1
x[605] 0
x[606] 1
x[607] 1
x[608] 1
x[609] 0
x[610] 1
x[611] 1
x[612] 1
x[613] 1
x[614] 1
x[615] 1
x[616] 0
x[617] 0
x[618] 1
x[619] 1
x[620] 0
x[621] 0
x[622] 1
x[623] 0
x[624] 0
x[625] 1
x[626] 1
x[627] 0
x[628] 0
x[629] 1
x[630] 1
x[631] 1
x[632] 0
x[633] 1
x[634] 1
x[635] 0
x[636] 1
x[637] 0
x[638] 0
x[639] 1
x[640] 1
x[641] 1
x[642] 1
x[643] 1
x[644] 0
x[645] 0
x[646] 0
x[647] 1
x[648] 1
x[649] 1
x[650] 0
x[651] 0
x[652] 1
x[653] 0
x[654] 1
x[655] 1
x[656] 0
x[657] 1
x[658] 1
x[659] 1
x[660] 0
x[661] 1
x[662] 1
x[663] 0
x[664] 1
x[665] 1
x[666] 1
x[667] 1
x[668] 1
x[669] 1
x[670] 1
x[671] 0
x[672] 1
x[673] 0
x[674] 1
x[675] 0
x[676] 1
x[677] 1
x[678] 0
x[679] 0
x[680] 0
x[681] 1
x[682] 1
x[683] 1
x[684] 1
x[685] 0
x[686] 1
x[687] 1
x[688] 0
x[689] 0
x[690] 1
x[691] 0
x[692] 1
x[693] 1
x[694] 1
x[695] 1
x[696] 1
x[697] 0
x[698] 0
x[699] 0
x[700] 0
x[701] 1
x[702] 1
x[703] 0
x[704] 0
x[705] 1
x[706] 0
x[707] 0
x[708] 0
x[709] 0
x[710] 1
x[711] 1
x[712] 1
x[713] 1
x[714] 0
x[715] 1
x[716] 1
x[717] 1
x[718] 1
x[719] 0
x[720] 0
x[721] 1
x[722] 0
x[723] 1
x[724] 1
x[725] 0
x[726] 1
x[727] 1
x[728] 1
x[729] 0
x[730] 1
x[731] 0
x[732] 1
x[733] 1
x[734] 0
x[735] 0
x[736] 1
x[737] 0
x[738] 1
x[739] 0
x[740] 0
x[741] 0
x[742] 0
x[743] 1
x[744] 1
x[745] 1
x[746] 1
x[747] 1
x[748] 1
x[749] 0
x[750] 1
x[751] 0
x[752] 1
x[753] 0
x[754] 0
x[755] 0
x[756] 1
x[757] 1
x[758] 0
x[759] 0
x[760] 1
x[761] 1
x[762] 1
x[763] 1
x[764] 1
x[765] 1
x[766] 1
x[767] 0
x[768] 0
x[769] 1
x[770] 1
x[771] 0
x[772] 0
x[773] 1
x[774] 0
x[775] 0
x[776] 1
x[777] 1
x[778] 1
x[779] 1
x[780] 1
x[781] 1
x[782] 0
x[783] 0
x[784] 1
x[785] 0
x[786] 0
x[787] 0
x[788] 0
x[789] 1
x[790] 1
x[791] 0
x[792] 0
x[793] 0
x[794] 0
x[795] 0
x[796] 1
x[797] 1
x[798] 1
x[799] 1
x[800] 1
x[801] 0
x[802] 0
x[803] 1
x[804] 0
x[805] 1
x[806] 1
x[807] 1
x[808] 0
x[809] 0
x[810] 1
x[811] 1
x[812] 0
x[813] 1
x[814] 1
x[815] 1
x[816] 0
x[817] 0
x[818] 0
x[819] 0
x[820] 1
x[821] 1
x[822] 0
x[823] 1
x[824] 1
x[825] 0
x[826] 1
x[827] 1
x[828] 0
x[829] 1
x[830] 1
x[831] 1
x[832] 1
x[833] 1
x[834] 0
x[835] 0
x[836] 0
x[837] 0
x[838] 1
x[839] 0
x[840] 1
x[841] 1
x[842] 1
x[843] 0
x[844] 1
x[845] 1
x[846] 1
x[847] 1
x[848] 0
x[849] 0
x[850] 0
x[851] 0
x[852] 0
x[853] 1
x[854] 0
x[855] 0
x[856] 1
x[857] 0
x[858] 0
x[859] 0
x[860] 0
x[861] 0
x[862] 0
x[863] 1
x[864] 0
x[865] 1
x[866] 1
x[867] 1
x[868] 0
x[869] 0
x[870] 1
x[871] 1
x[872] 0
x[873] 0
x[874] 1
x[875] 0
x[876] 1
x[877] 0
x[878] 1
x[879] 0
x[880] 0
x[881] 0
x[882] 1
x[883] 0
x[884] 1
x[885] 1
x[886] 0
x[887] 1
x[888] 1
x[889] 1
x[890] 1
x[891] 0
x[892] 0
x[893] 1
x[894] 1
x[895] 1
x[896] 1
x[897] 0
x[898] 1
x[899] 0
x[900] 0
x[901] 0
x[902] 0
x[903] 1
x[904] 1
x[905] 1
x[906] 0
x[907] 1
x[908] 1
x[909] 1
x[910] 0
x[911] 0
x[912] 1
x[913] 1
x[914] 1
x[915] 1
x[916] 0
x[917] 1
x[918] 1
x[919] 1
x[920] 0
x[921] 1
x[922] 0
x[923] 1
x[924] 1
x[925] 0
x[926] 1
x[927] 1
x[928] 0
x[929] 1
x[930] 1
x[931] 0
x[932] 0
x[933] 0
x[934] 1
x[935] 0
x[936] 1
x[937] 1
x[938] 1
x[939] 1
x[940] 1
x[941] 0
x[942] 1
x[943] 1
x[944] 0
x[945] 1
x[946] 1
x[947] 1
x[948] 1
x[949] 1
x[950] 1
x[951] 0
x[952] 1
x[953] 1
x[954] 1
x[955] 1
x[956] 1
x[957] 0
x[958] 0
x[959] 1
x[960] 0
x[961] 0
x[962] 1
x[963] 1
x[964] 1
x[965] 0
x[966] 1
x[967] 1
x[968] 1
x[969] 1
x[970] 0
x[971] 1
x[972] 0
x[973] 1
x[974] 0
x[975] 1
x[976] 0
x[977] 0
x[978] 1
x[979] 1
x[980] 1
x[981] 0
x[982] 1
x[983] 0
x[984] 1
x[985] 0
x[986] 1
x[987] 1
x[988] 0
x[989] 0
x[990] 0
x[991] 1
x[992] 1
x[993] 1
x[994] 0
x[995] 1
x[996] 0
x[997] 1
x[998] 1
x[999] 0
